==> MAXTIME              = 3600
==> OUTPUTLOG            = 1
==> COVERCUTS            = 0
FICO Xpress v8.5.9, solve started 23:35:01, Jun 8, 2019
Maximizing MILP Seating model
Original problem has:
       230 rows          300 cols         7440 elements       300 globals
Presolved problem has:
       103 rows          204 cols         2431 elements       198 globals
LP relaxation tightened
Will try to keep branch and bound tree memory usage below 7.2GB
 *** Heuristic solution found:    22.000000      Time: 0 ***
Starting concurrent solve with dual

 Concurrent-Solve,   0s
            Dual        
    objective   dual inf
 D  102.00000   .0000000
------- optimal --------
Concurrent statistics:
      Dual: 34 simplex iterations, 0.00s
Optimal solution found
 
   Its         Obj Value      S   Ninf  Nneg   Sum Dual Inf  Time
    34        102.000000      D      0     0        .000000     0
Dual solved problem
  34 simplex iterations in 0s

Final objective                         : 1.020000000000000e+02
  Max primal violation      (abs / rel) : 1.110e-16 / 9.869e-17
  Max dual violation        (abs / rel) :       0.0 /       0.0
  Max complementarity viol. (abs / rel) :       0.0 /       0.0
All values within tolerances

Starting root cutting & heuristics
 
 Its Type    BestSoln    BestBound   Sols    Add    Del     Gap     GInf   Time
   1  G     22.000000   102.000000      1     28     21   78.43%      29      0
Heuristic search started
R           28.000000   102.000000      2                 72.55%       0      0
Heuristic search stopped
M           31.000000   102.000000      3                 69.61%       0      0
M           36.000000   102.000000      4                 64.71%       0      0
M           41.000000   102.000000      5                 59.80%       0      0
M           46.000000   102.000000      6                 54.90%       0      0
M           49.000000   102.000000      7                 51.96%       0      0
M           52.000000   102.000000      8                 49.02%       0      0
M           57.000000   102.000000      9                 44.12%       0      0
 
Cuts in the matrix         : 7
Cut elements in the matrix : 236
 
Starting tree search.
Deterministic mode with up to 4 running threads and up to 8 tasks.
 
    Node     BestSoln    BestBound   Sols Active  Depth     Gap     GInf   Time
       1    57.000000   102.000000      9      2      1   44.12%      32      0
       2    57.000000   102.000000      9      2      2   44.12%      37      0
       3    57.000000   102.000000      9      2      2   44.12%      40      0
       4    57.000000   102.000000      9      2      3   44.12%      32      0
       5    57.000000   102.000000      9      2      3   44.12%      38      0
       6    57.000000   102.000000      9      2      4   44.12%      39      0
       7    57.000000   102.000000      9      5      3   44.12%      35      0
       8    57.000000   102.000000      9      5      4   44.12%      38      0
       9    57.000000   102.000000      9      5      4   44.12%      47      0
      10    57.000000   102.000000      9      8      5   44.12%      32      0
      22    57.000000   102.000000      9     16      7   44.12%      29      0
      39    57.000000   102.000000      9     16     16   44.12%      45      0
      50    57.000000   102.000000      9     16     16   44.12%      37      0
      63    57.000000   102.000000      9     31     16   44.12%      30      0
      88    57.000000   102.000000      9     50     21   44.12%      44      0
     108    57.000000   102.000000      9     50     14   44.12%      33      0
     223    57.000000   102.000000      9     50     16   44.12%      18      0
     329    57.000000   102.000000      9    102     18   44.12%      22      1
     431    57.000000   102.000000      9    135     23   44.12%      16      1
B&B tree size: 3.4MB total
 
    Node     BestSoln    BestBound   Sols Active  Depth     Gap     GInf   Time
a    495    60.000000   102.000000     10    157     21   41.18%       0      1
     535    60.000000   102.000000     10    157     21   41.18%      31      1
     643    60.000000   102.000000     10    157     14   41.18%      20      1
     751    60.000000   102.000000     10    197      1   41.18%       1      1
     860    60.000000   102.000000     10    197     17   41.18%      27      1
     965    60.000000   102.000000     10    197     18   41.18%      37      1
    1070    60.000000   102.000000     10    224      1   41.18%       1      1
    1171    60.000000   102.000000     10    265     22   41.18%      24      1
    1282    60.000000   102.000000     10    318     24   41.18%      39      1
    1391    60.000000   100.696732     10    364     16   40.42%      43      1
    1506    60.000000   100.696732     10    421     21   40.42%      22      1
    1606    60.000000   100.696732     10    477     17   40.42%      46      1
    1730    60.000000   100.696732     10    477     22   40.42%      13      2
    1836    60.000000   100.696732     10    502     20   40.42%      21      2
    1945    60.000000   100.696732     10    524     19   40.42%      47      2
    2053    60.000000   100.696732     10    524     24   40.42%      23      2
    2156    60.000000   100.696732     10    524     25   40.42%      21      2
    2258    60.000000   100.696732     10    616     26   40.42%      30      2
    2370    60.000000   100.696732     10    616     21   40.42%      20      2
    2476    60.000000   100.696732     10    616     18   40.42%      19      2
B&B tree size: 9.7MB total
 
    Node     BestSoln    BestBound   Sols Active  Depth     Gap     GInf   Time
    2585    60.000000   100.696732     10    616     23   40.42%      14      2
    2693    60.000000   100.696732     10    616     20   40.42%      24      2
    2800    60.000000   100.696732     10    616     25   40.42%      16      2
    2911    60.000000   100.696732     10    616     17   40.42%      48      2
    3022    60.000000   100.696732     10    616     23   40.42%      30      2
    3128    60.000000   100.696732     10    616     22   40.42%      17      2
    3228    60.000000   100.696732     10    616     20   40.42%      36      2
    3336    60.000000   100.696732     10    662     18   40.42%      13      2
    3440    60.000000   100.696732     10    734     18   40.42%      49      3
    3544    60.000000   100.696732     10    734     16   40.42%      46      3
    3653    60.000000   100.696732     10    734     17   40.42%      41      3
    3783    60.000000   100.696732     10    814     22   40.42%      35      3
    3888    60.000000   100.696732     10    814     22   40.42%      34      3
    3998    60.000000   100.696732     10    870     21   40.42%      44      3
    4100    60.000000   100.696732     10    870     16   40.42%      28      3
    4221    60.000000   100.696732     10    870     24   40.42%      41      3
    4324    60.000000   100.696732     10   1003      1   40.42%       1      3
    4427    60.000000   100.696732     10   1003     23   40.42%      38      3
    4541    60.000000   100.696732     10   1003     20   40.42%      33      3
    4652    60.000000   100.696732     10   1110     25   40.42%      15      3
B&B tree size: 14MB total
 
    Node     BestSoln    BestBound   Sols Active  Depth     Gap     GInf   Time
    4756    60.000000    93.451036     10   1321     15   35.80%      26      3
    4859    60.000000    93.451036     10   1321     16   35.80%      40      3
    4970    60.000000    93.451036     10   1321     23   35.80%      30      3
    5071    60.000000    93.451036     10   1381      1   35.80%       1      3
    5181    60.000000    93.451036     10   1381     18   35.80%      41      3
    5289    60.000000    93.451036     10   1381     22   35.80%      23      3
    5398    60.000000    93.451036     10   1381     17   35.80%      40      4
    5500    60.000000    93.451036     10   1381     22   35.80%      32      4
    5606    60.000000    93.451036     10   1381     20   35.80%      26      4
    5718    60.000000    93.451036     10   1381     17   35.80%      43      4
    5823    60.000000    93.451036     10   1425     24   35.80%      20      4
    5946    60.000000    93.451036     10   1575     26   35.80%      23      4
    6052    60.000000    93.451036     10   1575     14   35.80%      32      4
    6156    60.000000    93.451036     10   1643     12   35.80%      30      4
    6270    60.000000    93.451036     10   1643     21   35.80%      38      4
    6382    60.000000    93.451036     10   1643     23   35.80%      28      4
    6491    60.000000    90.361022     10   1697     25   33.60%      26      4
    6599    60.000000    90.361022     10   1697      9   33.60%      45      4
    6717    60.000000    90.361022     10   1697     15   33.60%      33      4
    6822    60.000000    90.361022     10   1697     16   33.60%      11      4
B&B tree size: 19MB total
 
    Node     BestSoln    BestBound   Sols Active  Depth     Gap     GInf   Time
    6924    60.000000    89.912844     10   1768     16   33.27%      36      4
    7024    60.000000    89.912844     10   1768     23   33.27%      29      4
    7145    60.000000    89.057968     10   1836     15   32.63%      33      4
    7249    60.000000    89.057968     10   1893     17   32.63%      33      4
    7354    60.000000    89.057968     10   1914     19   32.63%      23      5
    7459    60.000000    89.057968     10   1935     20   32.63%      26      5
    7572    60.000000    89.057968     10   1935     23   32.63%      20      5
    7676    60.000000    89.057968     10   1990     25   32.63%      26      5
    7805    60.000000    86.278369     10   2039     25   30.46%      25      5
    7919    60.000000    86.278369     10   2039     23   30.46%      24      5
    8019    60.000000    86.278369     10   2039     33   30.46%      30      5
    8120    60.000000    86.278369     10   2039     21   30.46%      49      5
    8222    60.000000    86.278369     10   2057     23   30.46%      14      5
    8326    60.000000    86.278369     10   2057     24   30.46%      15      5
    8428    60.000000    86.278369     10   2057     21   30.46%      34      5
    8542    60.000000    86.278369     10   2057     22   30.46%      32      5
    8652    60.000000    86.278369     10   2057     15   30.46%      29      5
    8763    60.000000    86.278369     10   2080     19   30.46%      29      5
    8866    60.000000    85.254726     10   2140     18   29.62%      46      5
    8979    60.000000    84.611111     10   2213     25   29.09%      18      5
B&B tree size: 23MB total
 
    Node     BestSoln    BestBound   Sols Active  Depth     Gap     GInf   Time
    9082    60.000000    84.611111     10   2243     20   29.09%      33      5
    9183    60.000000    84.611111     10   2243     18   29.09%      33      5
    9301    60.000000    84.611111     10   2243     15   29.09%      37      6
    9403    60.000000    84.611111     10   2243     17   29.09%      41      6
    9503    60.000000    84.611111     10   2262     22   29.09%      31      6
    9604    60.000000    84.611111     10   2299     18   29.09%      18      6
    9718    60.000000    84.587418     10   2302     21   29.07%      35      6
    9823    60.000000    83.380618     10   2364     22   28.04%      35      6
    9923    60.000000    83.380618     10   2364     17   28.04%      43      6
   10030    60.000000    83.380618     10   2364     16   28.04%      32      6
   11035    60.000000    83.000000     10   2523     24   27.71%      25      6
   12037    60.000000    82.874635     10   2696     14   27.60%      41      7
   13051    60.000000    82.000000     10   2796     26   26.83%      35      7
   14062    60.000000    82.000000     10   2989     16   26.83%      32      8
   15082    60.000000    82.000000     10   3067     20   26.83%      25      8
   16089    60.000000    82.000000     10   3170     15   26.83%      31      9
   17089    60.000000    82.000000     10   3331     11   26.83%      30      9
   18097    60.000000    80.374687     10   3397     20   25.35%      34     10
   19100    60.000000    79.000000     10   3431     20   24.05%      42     10
   20102    60.000000    78.058824     10   3434     19   23.13%      33     11
B&B tree size: 35MB total
 
    Node     BestSoln    BestBound   Sols Active  Depth     Gap     GInf   Time
   21121    60.000000    78.000000     10   3563     27   23.08%      16     11
   22126    60.000000    78.000000     10   3576     19   23.08%      26     12
   23138    60.000000    78.000000     10   3676     16   23.08%      31     12
   24153    60.000000    76.635747     10   3723     17   21.71%      41     13
   25166    60.000000    76.352935     10   3741     17   21.42%      17     13
   26168    60.000000    76.061832     10   3751     24   21.12%      25     14
   27179    60.000000    76.000000     10   3743     23   21.05%      20     14
   28192    60.000000    75.422303     10   3776     28   20.45%      18     14
   29195    60.000000    75.000000     10   3750     32   20.00%      15     15
   30208    60.000000    75.000000     10   3822     23   20.00%      29     15
   31215    60.000000    74.621202     10   3804     23   19.59%      36     16
   32220    60.000000    74.019247     10   3749     26   18.94%      20     16
   33226    60.000000    74.000000     10   3715     29   18.92%      25     17
   34228    60.000000    74.000000     10   3641     23   18.92%      37     17
   35234    60.000000    73.025866     10   3565     26   17.84%       8     17
   36258    60.000000    73.000000     10   3549     27   17.81%      17     18
   37262    60.000000    73.000000     10   3508     23   17.81%      37     18
   38270    60.000000    72.210526     10   3398     24   16.91%      32     19
   39279    60.000000    72.000000     10   3316     26   16.67%      30     19
   40282    60.000000    71.285066     10   3191     20   15.83%      33     20
B&B tree size: 39MB total
 
    Node     BestSoln    BestBound   Sols Active  Depth     Gap     GInf   Time
   41292    60.000000    71.000000     10   3031     18   15.49%      21     20
   42294    60.000000    70.437537     10   2895     21   14.82%      12     20
   43298    60.000000    70.000000     10   2825     27   14.29%      13     21
   44298    60.000000    70.000000     10   2717     25   14.29%      16     21
   45298    60.000000    69.051152     10   2519     20   13.11%      37     22
   46299    60.000000    69.000000     10   2419     20   13.04%      24     22
   47300    60.000000    69.000000     10   2246     27   13.04%      39     23
   48310    60.000000    68.000000     10   2053     21   11.76%      16     23
   49323    60.000000    67.000000     10   1795     25   10.45%      21     23
   50323    60.000000    66.382751     10   1469     22    9.62%      25     24
   51325    60.000000    65.000000     10   1043     19    7.69%      29     24
   52329    60.000000    63.289474     10    492     23    5.20%      11     24
   53329    60.000000    62.000000     10     27     22    3.23%      18     25
 *** Search completed ***     Time:    25 Nodes:      53369
Number of integer feasible solutions found is 10
Best integer solution found is    60.000000
Best bound is    60.000000
Uncrunching matrix
